NAME : gaussian_missing_edges_with_de_seg1_seg2_seg3_random133.8684.tour
COMMENT : Length = 8684
COMMENT : Found by LKH [Keld Helsgaun] Fri Jul 12 16:42:40 2024
TYPE : TOUR
DIMENSION : 133
TOUR_SECTION
1
28
100
78
106
94
123
107
62
87
45
124
20
63
13
51
25
34
119
55
21
132
17
18
81
77
32
2
122
10
52
23
69
49
102
116
47
101
92
121
35
130
112
44
29
98
53
129
33
36
111
38
89
5
104
95
64
133
70
80
39
46
59
16
43
93
60
125
126
86
99
114
118
85
67
37
58
3
103
75
4
128
40
97
24
105
42
65
6
113
127
22
9
73
56
48
90
54
72
110
7
74
117
31
83
108
68
41
131
57
61
19
84
11
82
115
12
27
66
109
15
96
26
8
88
79
76
91
14
71
120
30
50
-1
EOF
